c 1 2 3 4 5 6 7 8 78 9 79 10 83 49 21 50 22 51 23 52 24 53 25 54 26 55 27 56 28 57 29 58 30 11 12 13 14 15 16 17 18 19 20 31 32 33 34 35 36 37 38 39 40 41 42 43 44 45 46 47 48 59 60 61 62 63 64 65 66 67 68 69 70 71 72 73 74 75 76 77 80 81 82 84 
p wcnf 231 84 18
18 -1 11 
18 -2 12 
18 -3 13 
18 -4 14 
18 -5 15 
18 -6 16 
18 -7 17 
18 -8 18 
18 -9 19 
18 -10 20 
18 -21 1 
18 -22 1 
18 -23 1 
18 -24 1 
18 -25 1 
18 -26 1 
18 -27 1 
18 -28 1 
18 -29 1 
18 -30 1 
18 -21 31 
18 -21 32 
18 -21 33 
18 -21 34 
18 -21 35 
18 -21 36 
18 -21 37 
18 -21 38 
18 -21 39 
18 -22 32 
18 -22 33 
18 -22 34 
18 -22 35 
18 -22 36 
18 -22 37 
18 -22 38 
18 -22 39 
18 -22 40 
18 -23 33 
18 -23 34 
18 -23 35 
18 -23 36 
18 -23 37 
18 -23 38 
18 -23 39 
18 -23 40 
18 -23 41 
18 -24 34 
18 -24 35 
18 -24 36 
18 -24 37 
18 -24 38 
18 -24 39 
18 -24 40 
18 -24 41 
18 -24 42 
18 -25 35 
18 -25 36 
18 -25 37 
18 -25 38 
18 -25 39 
18 -25 40 
18 -25 41 
18 -25 42 
18 -25 43 
18 -26 36 
18 -26 37 
18 -26 38 
18 -26 39 
18 -26 40 
18 -26 41 
18 -26 42 
18 -26 43 
18 -26 44 
18 -27 37 
18 -27 38 
18 -27 39 
18 -27 40 
18 -27 41 
18 -27 42 
18 -27 43 
18 -27 44 
18 -27 45 
18 -28 38 
18 -28 39 
18 -28 40 
18 -28 41 
18 -28 42 
18 -28 43 
18 -28 44 
18 -28 45 
18 -28 46 
18 -29 39 
18 -29 40 
18 -29 41 
18 -29 42 
18 -29 43 
18 -29 44 
18 -29 45 
18 -29 46 
18 -29 47 
18 -30 40 
18 -30 41 
18 -30 42 
18 -30 43 
18 -30 44 
18 -30 45 
18 -30 46 
18 -30 47 
18 -30 48 
18 -49 1 
18 -50 1 
18 -51 1 
18 -52 1 
18 -53 1 
18 -54 1 
18 -55 1 
18 -56 1 
18 -57 1 
18 -58 1 
18 -49 59 
18 -49 60 
18 -49 61 
18 -49 62 
18 -49 63 
18 -49 64 
18 -49 65 
18 -49 66 
18 -49 67 
18 -49 68 
18 -50 60 
18 -50 61 
18 -50 62 
18 -50 63 
18 -50 64 
18 -50 65 
18 -50 66 
18 -50 67 
18 -50 68 
18 -50 69 
18 -51 61 
18 -51 62 
18 -51 63 
18 -51 64 
18 -51 65 
18 -51 66 
18 -51 67 
18 -51 68 
18 -51 69 
18 -51 70 
18 -52 62 
18 -52 63 
18 -52 64 
18 -52 65 
18 -52 66 
18 -52 67 
18 -52 68 
18 -52 69 
18 -52 70 
18 -52 71 
18 -53 63 
18 -53 64 
18 -53 65 
18 -53 66 
18 -53 67 
18 -53 68 
18 -53 69 
18 -53 70 
18 -53 71 
18 -53 72 
18 -54 64 
18 -54 65 
18 -54 66 
18 -54 67 
18 -54 68 
18 -54 69 
18 -54 70 
18 -54 71 
18 -54 72 
18 -54 73 
18 -55 65 
18 -55 66 
18 -55 67 
18 -55 68 
18 -55 69 
18 -55 70 
18 -55 71 
18 -55 72 
18 -55 73 
18 -55 74 
18 -56 66 
18 -56 67 
18 -56 68 
18 -56 69 
18 -56 70 
18 -56 71 
18 -56 72 
18 -56 73 
18 -56 74 
18 -56 75 
18 -57 67 
18 -57 68 
18 -57 69 
18 -57 70 
18 -57 71 
18 -57 72 
18 -57 73 
18 -57 74 
18 -57 75 
18 -57 76 
18 -58 68 
18 -58 69 
18 -58 70 
18 -58 71 
18 -58 72 
18 -58 73 
18 -58 74 
18 -58 75 
18 -58 76 
18 -58 77 
18 -78 21 
18 -79 21 
18 -78 80 
18 -78 81 
18 -79 81 
18 -79 82 
18 -83 49 78 
18 -83 84 
18 21 22 23 24 25 26 27 28 29 30 49 50 51 52 53 54 55 56 57 58 
18 21 22 23 24 25 26 27 28 29 30 49 50 51 52 53 54 55 56 57 58 78 79 
9 83 
